p edge 30 44 10
v 1 5
v 2 13 29
v 4 9 12 20 26
v 2 16 24
v 3 7 15 25
v 4 4 8 11 17
v 5 1 14 18 23 28
v 3 6 21 30
v 4 2 3 22 27
v 2 10 19
e 1 5
e 1 21
e 2 15
e 2 19
e 2 21
e 2 25
e 3 9
e 3 23
e 3 25
e 4 11
e 4 27
e 4 28
e 5 8
e 5 12
e 5 26
e 6 26
e 7 8
e 8 19
e 9 11
e 9 20
e 9 25
e 11 18
e 11 29
e 11 30
e 13 17
e 14 19
e 15 16
e 15 18
e 15 27
e 16 19
e 16 21
e 18 22
e 18 26
e 18 27
e 19 26
e 20 25
e 20 28
e 20 29
e 21 26
e 22 28
e 23 25
e 23 30
e 26 27
e 27 28
